31696.61 1
32 165 44 98 77 30 56 71 134 160 6 131 66 74 158 175 35 128 107 198 196 190 28 127 57 102 110 192 21 184 172 152 69 48 169 97 138 139 166 96 104 31 161 125 199 155 0 49 168 93 16 89 88 10 167 109 41 22 120 189 100 194 197 73 111 60 170 126 75 79 193 156 133 108 124 145 45 119 179 137 51 7 65 37 185 148 33 80 129 174 26 23 164 87 178 12 180 78 146 40 83 136 171 68 106 183 157 151 15 62 153 14 72 38 90 53 76 42 63 58 149 154 3 70 187 122 121 92 43 59 52 123 117 4 176 2 39 5 82 115 144 135 18 191 50 118 36 195 61 34 29 143 99 1 47 140 91 116 177 86 25 162 130 94 150 27 11 114 46 132 163 181 20 55 147 9 112 54 101 8 141 19 24 113 17 84 142 188 95 85 159 173 64 186 81 182 105 103 13 67